Os4 Se8                                 
   1.00000000000000     
     6.0123395968681823    0.0000020995716191    0.0000020988772483
     0.0000020988772483    6.0123395968681823    0.0000020995716191
     0.0000020995716191    0.0000020988772483    6.0123395968681823
   Os   Se
     4     8
Direct
  0.0000013602539581  0.5000017966889623  0.5000003254738736
  0.5000017966889623  0.5000003254738736  0.0000013602539581
  0.5000003254738736  0.0000013602539581  0.5000017966889623
  0.9999988403557650  0.9999988403557650  0.9999988403557650
  0.3771935862811153  0.1228075285992453  0.8771923147043077
  0.1228075285992453  0.8771923147043077  0.3771935862811153
  0.8771923147043077  0.3771935862811153  0.1228075285992453
  0.6228088657476814  0.6228088657476814  0.6228088657476814
  0.3771912190330386  0.3771912190330386  0.3771912190330386
  0.1228063287544508  0.6228068175287578  0.8771910465788609
  0.8771910465788609  0.1228063287544508  0.6228068175287578
  0.6228068175287578  0.8771910465788609  0.1228063287544508
 
  0.00000000E+00  0.00000000E+00  0.00000000E+00
  0.00000000E+00  0.00000000E+00  0.00000000E+00
  0.00000000E+00  0.00000000E+00  0.00000000E+00
  0.00000000E+00  0.00000000E+00  0.00000000E+00
  0.00000000E+00  0.00000000E+00  0.00000000E+00
  0.00000000E+00  0.00000000E+00  0.00000000E+00
  0.00000000E+00  0.00000000E+00  0.00000000E+00
  0.00000000E+00  0.00000000E+00  0.00000000E+00
  0.00000000E+00  0.00000000E+00  0.00000000E+00
  0.00000000E+00  0.00000000E+00  0.00000000E+00
  0.00000000E+00  0.00000000E+00  0.00000000E+00
  0.00000000E+00  0.00000000E+00  0.00000000E+00
