Os4 Se8                                 
   1.00000000000000     
     6.0123395920000000    0.0000000000000000    0.0000000000000000
     0.0000040030000000    6.0123395920000000    0.0000000000000000
     0.0000320237000000    0.0000320236000000   68.0987167357999965
   Os   Se
    32    64
Selective dynamics
Direct
  0.0000015166524392  0.5000019445249535  0.0706308983128210   F   F   F
  0.0000017121956120  0.5000021400697250  0.1589194869998281   F   F   F
  0.0000019077388345  0.5000023356145462  0.2472080651580058   F   F   F
  0.0000021032820072  0.5000025311593106  0.3354966538450057   F   F   F
  0.0000022988251729  0.5000027267040821  0.4237852425320128   F   F   F
  0.0000024943683457  0.5000029222488536  0.5120738312190198   F   F   F
  0.0000026899115113  0.5000031177936179  0.6003624199060269   F   F   F
  0.9887964304953429  0.4894915437217181  0.6869286930194388   T   T   T
  0.5000018467514025  0.5000003567331177  0.0264866960562244   F   F   F
  0.5000020422945539  0.5000005522778679  0.1147752873864505   F   F   F
  0.5000022378377267  0.5000007478226394  0.2030638760734575   F   F   F
  0.5000024333808923  0.5000009433674037  0.2913524647604646   F   F   F
  0.5000026289241788  0.5000011389122889  0.3796410323898058   F   F   F
  0.5000028244673445  0.5000013342907295  0.4679296210768129   F   F   F
  0.5000030200105172  0.5000015298355009  0.5562182097638200   F   F   F
  0.4995011967386322  0.5018792484147043  0.6447183322436284   T   T   T
  0.5000004544199470  0.0000015167373704  0.0706310298718336   F   F   F
  0.5000006499630842  0.0000017122821134  0.1589196238159190   F   F   F
  0.5000008455062570  0.0000019078268778  0.2472082125029260   F   F   F
  0.5000010410494227  0.0000021033716493  0.3354968011899260   F   F   F
  0.5000012365927020  0.0000022987502035  0.4237853688339541   F   F   F
  0.5000014321358748  0.0000024942949750  0.5120739575209612   F   F   F
  0.5000016276790475  0.0000026898397394  0.6003625462079683   F   F   F
  0.5112349364363191  0.9894919641318075  0.6869290293660402   T   T   T
  0.0000012182933986  0.0000012182946492  0.0264866802703168   F   F   F
  0.0000014138365785  0.0000014138394278  0.1147752663287847   F   F   F
  0.0000016093797512  0.0000016093841992  0.2030638550157917   F   F   F
  0.0000018049229169  0.0000018049289636  0.2913524437027988   F   F   F
  0.0000020004660897  0.0000020004737351  0.3796410323898058   F   F   F
  0.0000021960092553  0.0000021960184995  0.4679296210768129   F   F   F
  0.0000023915524281  0.0000023915632710  0.5562182097638200   F   F   F
  0.0005129384348214  0.0018793477366734  0.6447181852401529   T   T   T
  0.3771938301871884  0.1228077553511540  0.1039326494573913   F   F   F
  0.3771940257304180  0.1228079508959823  0.1922212276155619   F   F   F
  0.3771942212735837  0.1228081462744228  0.2805098163025690   F   F   F
  0.3771944166504326  0.1228083418191943  0.3687984049895761   F   F   F
  0.3771946121935983  0.1228085373639587  0.4570869936765831   F   F   F
  0.3771948077367711  0.1228087329087302  0.5453755823635902   F   F   F
  0.3768128722998375  0.1240935050195022  0.6336182697865415   T   T   T
  0.3771936346440228  0.1228075598063896  0.0156440607703843   F   F   F
  0.1228076574272663  0.8771924509014113  0.0597884656299215   F   F   F
  0.1228078529704106  0.8771926464461544  0.1480770595739997   F   F   F
  0.1228080485135763  0.8771928419909258  0.2363656482610068   F   F   F
  0.1228082440567491  0.8771930375356902  0.3246542369480139   F   F   F
  0.1228084395999147  0.8771932330804617  0.4129428256350209   F   F   F
  0.1228086351430875  0.8771934284589022  0.5012314143220280   F   F   F
  0.1228088306862531  0.8771936240036737  0.5895200030090280   F   F   F
  0.1249485196295066  0.8722483316690302  0.6786728696452776   T   T   T
  0.8771924010573215  0.3771936825734272  0.0373290787528688   F   F   F
  0.8771925966005156  0.3771938781182271  0.1256176621828047   F   F   F
  0.8771927921436884  0.3771940736629915  0.2139062508698046   F   F   F
  0.8771929876868541  0.3771942692077630  0.3021948395568117   F   F   F
  0.8771931832299131  0.3771944647524208  0.3904834492868048   F   F   F
  0.8771933787730859  0.3771946602971852  0.4787720379738047   F   F   F
  0.8771935743162516  0.3771948558419567  0.5670606266608118   F   F   F
  0.8753354557007050  0.3771629670241281  0.6551961156247118   T   T   T
  0.6228090540319968  0.6228090540507552  0.0814734941412354   F   F   F
  0.6228092495751625  0.6228092495955195  0.1697620828282425   F   F   F
  0.6228094451183352  0.6228094451402910  0.2580506715152495   F   F   F
  0.6228096406615009  0.6228096406850554  0.3463392601875697   F   F   F
  0.6228098362047803  0.6228098362299406  0.4346278278315978   F   F   F
  0.6228100317479530  0.6228100317747050  0.5229164165186049   F   F   F
  0.6228102272911258  0.6228102273194764  0.6112050052056119   F   F   F
  0.6293166928467855  0.6295107018017395  0.6993669667851073   T   T   T
  0.3771913481865568  0.3771913481704132  0.0597882551266835   F   F   F
  0.3771915437296940  0.3771915437151563  0.1480768490854487   F   F   F
  0.3771917392728668  0.3771917392599207  0.2363654377724558   F   F   F
  0.3771919348160395  0.3771919348046922  0.3246540264594628   F   F   F
  0.3771921303592052  0.3771921303494565  0.4129426151464699   F   F   F
  0.3771923259023779  0.3771923258942280  0.5012312038334770   F   F   F
  0.3771925214455436  0.3771925214389924  0.5895197925204840   F   F   F
  0.3750820234485113  0.3722479750626821  0.6786732211745874   T   T   T
  0.1228065558009135  0.6228070772463639  0.1039325336842865   F   F   F
  0.1228067513440863  0.6228072727911353  0.1922211223712864   F   F   F
  0.1228069468872519  0.6228074683358997  0.2805097110582935   F   F   F
  0.1228071422642074  0.6228076638807778  0.3687982787023216   F   F   F
  0.1228073378073802  0.6228078594255493  0.4570868673893287   F   F   F
  0.1228075333505458  0.6228080549703137  0.5453754560763358   F   F   F
  0.1231793647975435  0.6241042986335008  0.6336183384732519   T   T   T
  0.1228063602577407  0.6228068817015924  0.0156439449972794   F   F   F
  0.8771912472053742  0.1228065059588062  0.0814733099527416   F   F   F
  0.8771914427485683  0.1228067015035990  0.1697618933679905   F   F   F
  0.8771916382917411  0.1228068970483704  0.2580504820549976   F   F   F
  0.8771918338349067  0.1228070925931348  0.3463390707420047   F   F   F
  0.8771920293780795  0.1228072881379063  0.4346276594290117   F   F   F
  0.8771922249212452  0.1228074836826778  0.5229162481160188   F   F   F
  0.8771924204644179  0.1228076792274422  0.6112048368030258   F   F   F
  0.8707200221389163  0.1295082571000288  0.6993667371984754   T   T   T
  0.6228069297972496  0.8771911494502760  0.0373289735085933   F   F   F
  0.6228071253404508  0.8771913449950688  0.1256175569385292   F   F   F
  0.6228073208836165  0.8771915405398403  0.2139061456255362   F   F   F
  0.6228075164267892  0.8771917360846118  0.3021947343125433   F   F   F
  0.6228077119699549  0.8771919316293761  0.3904833229848634   F   F   F
  0.6228079075131276  0.8771921271741476  0.4787719116718705   F   F   F
  0.6228081030562933  0.8771923227189120  0.5670605003588776   F   F   F
  0.6246868677158758  0.8771573948978759  0.6551965074807347   T   T   T
 
  0.00000000E+00  0.00000000E+00  0.00000000E+00
  0.00000000E+00  0.00000000E+00  0.00000000E+00
  0.00000000E+00  0.00000000E+00  0.00000000E+00
  0.00000000E+00  0.00000000E+00  0.00000000E+00
  0.00000000E+00  0.00000000E+00  0.00000000E+00
  0.00000000E+00  0.00000000E+00  0.00000000E+00
  0.00000000E+00  0.00000000E+00  0.00000000E+00
  0.00000000E+00  0.00000000E+00  0.00000000E+00
  0.00000000E+00  0.00000000E+00  0.00000000E+00
  0.00000000E+00  0.00000000E+00  0.00000000E+00
  0.00000000E+00  0.00000000E+00  0.00000000E+00
  0.00000000E+00  0.00000000E+00  0.00000000E+00
  0.00000000E+00  0.00000000E+00  0.00000000E+00
  0.00000000E+00  0.00000000E+00  0.00000000E+00
  0.00000000E+00  0.00000000E+00  0.00000000E+00
  0.00000000E+00  0.00000000E+00  0.00000000E+00
  0.00000000E+00  0.00000000E+00  0.00000000E+00
  0.00000000E+00  0.00000000E+00  0.00000000E+00
  0.00000000E+00  0.00000000E+00  0.00000000E+00
  0.00000000E+00  0.00000000E+00  0.00000000E+00
  0.00000000E+00  0.00000000E+00  0.00000000E+00
  0.00000000E+00  0.00000000E+00  0.00000000E+00
  0.00000000E+00  0.00000000E+00  0.00000000E+00
  0.00000000E+00  0.00000000E+00  0.00000000E+00
  0.00000000E+00  0.00000000E+00  0.00000000E+00
  0.00000000E+00  0.00000000E+00  0.00000000E+00
  0.00000000E+00  0.00000000E+00  0.00000000E+00
  0.00000000E+00  0.00000000E+00  0.00000000E+00
  0.00000000E+00  0.00000000E+00  0.00000000E+00
  0.00000000E+00  0.00000000E+00  0.00000000E+00
  0.00000000E+00  0.00000000E+00  0.00000000E+00
  0.00000000E+00  0.00000000E+00  0.00000000E+00
  0.00000000E+00  0.00000000E+00  0.00000000E+00
  0.00000000E+00  0.00000000E+00  0.00000000E+00
  0.00000000E+00  0.00000000E+00  0.00000000E+00
  0.00000000E+00  0.00000000E+00  0.00000000E+00
  0.00000000E+00  0.00000000E+00  0.00000000E+00
  0.00000000E+00  0.00000000E+00  0.00000000E+00
  0.00000000E+00  0.00000000E+00  0.00000000E+00
  0.00000000E+00  0.00000000E+00  0.00000000E+00
  0.00000000E+00  0.00000000E+00  0.00000000E+00
  0.00000000E+00  0.00000000E+00  0.00000000E+00
  0.00000000E+00  0.00000000E+00  0.00000000E+00
  0.00000000E+00  0.00000000E+00  0.00000000E+00
  0.00000000E+00  0.00000000E+00  0.00000000E+00
  0.00000000E+00  0.00000000E+00  0.00000000E+00
  0.00000000E+00  0.00000000E+00  0.00000000E+00
  0.00000000E+00  0.00000000E+00  0.00000000E+00
  0.00000000E+00  0.00000000E+00  0.00000000E+00
  0.00000000E+00  0.00000000E+00  0.00000000E+00
  0.00000000E+00  0.00000000E+00  0.00000000E+00
  0.00000000E+00  0.00000000E+00  0.00000000E+00
  0.00000000E+00  0.00000000E+00  0.00000000E+00
  0.00000000E+00  0.00000000E+00  0.00000000E+00
  0.00000000E+00  0.00000000E+00  0.00000000E+00
  0.00000000E+00  0.00000000E+00  0.00000000E+00
  0.00000000E+00  0.00000000E+00  0.00000000E+00
  0.00000000E+00  0.00000000E+00  0.00000000E+00
  0.00000000E+00  0.00000000E+00  0.00000000E+00
  0.00000000E+00  0.00000000E+00  0.00000000E+00
  0.00000000E+00  0.00000000E+00  0.00000000E+00
  0.00000000E+00  0.00000000E+00  0.00000000E+00
  0.00000000E+00  0.00000000E+00  0.00000000E+00
  0.00000000E+00  0.00000000E+00  0.00000000E+00
  0.00000000E+00  0.00000000E+00  0.00000000E+00
  0.00000000E+00  0.00000000E+00  0.00000000E+00
  0.00000000E+00  0.00000000E+00  0.00000000E+00
  0.00000000E+00  0.00000000E+00  0.00000000E+00
  0.00000000E+00  0.00000000E+00  0.00000000E+00
  0.00000000E+00  0.00000000E+00  0.00000000E+00
  0.00000000E+00  0.00000000E+00  0.00000000E+00
  0.00000000E+00  0.00000000E+00  0.00000000E+00
  0.00000000E+00  0.00000000E+00  0.00000000E+00
  0.00000000E+00  0.00000000E+00  0.00000000E+00
  0.00000000E+00  0.00000000E+00  0.00000000E+00
  0.00000000E+00  0.00000000E+00  0.00000000E+00
  0.00000000E+00  0.00000000E+00  0.00000000E+00
  0.00000000E+00  0.00000000E+00  0.00000000E+00
  0.00000000E+00  0.00000000E+00  0.00000000E+00
  0.00000000E+00  0.00000000E+00  0.00000000E+00
  0.00000000E+00  0.00000000E+00  0.00000000E+00
  0.00000000E+00  0.00000000E+00  0.00000000E+00
  0.00000000E+00  0.00000000E+00  0.00000000E+00
  0.00000000E+00  0.00000000E+00  0.00000000E+00
  0.00000000E+00  0.00000000E+00  0.00000000E+00
  0.00000000E+00  0.00000000E+00  0.00000000E+00
  0.00000000E+00  0.00000000E+00  0.00000000E+00
  0.00000000E+00  0.00000000E+00  0.00000000E+00
  0.00000000E+00  0.00000000E+00  0.00000000E+00
  0.00000000E+00  0.00000000E+00  0.00000000E+00
  0.00000000E+00  0.00000000E+00  0.00000000E+00
  0.00000000E+00  0.00000000E+00  0.00000000E+00
  0.00000000E+00  0.00000000E+00  0.00000000E+00
  0.00000000E+00  0.00000000E+00  0.00000000E+00
  0.00000000E+00  0.00000000E+00  0.00000000E+00
  0.00000000E+00  0.00000000E+00  0.00000000E+00
